StudentsNr = 10;
InstructorsNr = 16;
DaysNr = 1;
SlotsPerDay = 60;
AvailabilitySlotsLenght = 6;
RoomNr = 2;
ProgrammNr = 1;
DegreeNr = 1;
RolesNr = 2;
CoursesNr = 4;
InstructorsProgramm = [{1}, {1}, {1}, {1}, {1}, {1}, {1}, {1}, {1}, {1}, {1}, {1}, {1}, {1}, {1}, {1}];
InstructorRolesPerProgramm = [|{1, 2, 7, 8, 11, 12, 13, 14, 15}, {1, 4, 5, 8, 14, 15}|];
InstructorsAvailability = [|0, 1, 1, 1, 1, 1, 0, 1, 1, 1, |1, 1, 1, 1, 1, 1, 1, 1, 1, 1, |1, 1, 1, 1, 1, 1, 1, 1, 1, 1, |1, 1, 1, 1, 1, 1, 1, 1, 1, 1, |0, 1, 1, 1, 1, 1, 0, 1, 0, 0, |1, 1, 1, 1, 1, 1, 1, 1, 1, 1, |1, 1, 1, 1, 1, 1, 1, 1, 1, 1, |0, 1, 1, 1, 1, 0, 1, 1, 1, 1, |0, 1, 1, 0, 0, 0, 0, 1, 1, 1, |0, 1, 1, 1, 1, 1, 1, 1, 1, 1, |1, 1, 1, 1, 1, 1, 1, 1, 1, 1, |1, 1, 0, 0, 0, 1, 1, 1, 1, 1, |0, 1, 1, 1, 1, 1, 1, 1, 1, 0, |1, 1, 1, 1, 1, 1, 1, 1, 1, 1, |1, 1, 1, 1, 1, 1, 1, 1, 1, 0, |1, 1, 0, 1, 1, 1, 1, 1, 1, 1|];
StudentsProgramm = [1, 1, 1, 1, 1, 1, 1, 1, 1, 1];
StudentsDegree = [1, 1, 1, 1, 1, 1, 1, 1, 1, 1];
StudentsSupervisorId = [14, 2, 13, 3, 7, 2, 12, 6, 5, 15];
StudentsCourseIds = [{1, 2, 3}, {2, 3, 4}, {1, 3, 4}, {1, 2, 4}, {1, 2, 4}, {1, 2, 4}, {2, 3, 4}, {1, 3, 4}, {1, 3, 4}, {1, 2, 4}];
StudentsAvailability = [|0, 0, 0, 0, 1, 1, 1, 0, 1, 1, |0, 1, 1, 1, 0, 0, 0, 1, 1, 1, |1, 1, 1, 1, 0, 1, 1, 1, 1, 1, |0, 1, 1, 1, 1, 1, 1, 1, 1, 1, |0, 0, 0, 1, 1, 1, 1, 1, 1, 1, |1, 1, 1, 1, 1, 1, 1, 1, 1, 1, |0, 1, 1, 1, 1, 1, 1, 1, 1, 1, |1, 0, 1, 1, 1, 1, 1, 0, 1, 1, |0, 0, 0, 1, 1, 1, 1, 0, 0, 0, |1, 1, 1, 1, 1, 0, 1, 1, 1, 1|];
TheoryticalMinCard = [0, 0, 0, 0, 0, 0, 0, 0, 0, 0];
CoursesInstructorIds = [{3, 5, 6, 7, 8, 10, 12, 13, 14}, {1, 2, 3, 4, 5, 6, 7, 9, 11, 13}, {1, 2, 3, 5, 6, 7, 8, 10, 11, 13}, {1, 3, 7, 9, 11, 15}];
RolesDemands = [7, 6];
RolesContinuity = [];
ExamLen = [2, 2, 2, 2, 2, 2, 2, 2, 2, 2];
LunchTsMinLen = 2;
LunchStarts = [24..34];
SupervisorAvailable = 0;
OptimalLunchLenght = [1, 3];
OptimalStartTs = [2, 1];
OptimalFinishTs = [0, 60];
MinimizeRooms = 500;
RolesSoftContinuity = [|1, 2|4, 3|];
SameDegreeInRoom = 0;
Mergeability = 1;
